p edge 121 1980
e 1 2
e 1 3
e 1 4
e 1 5
e 1 6
e 1 7
e 1 8
e 1 9
e 1 10
e 1 11
e 1 13
e 1 14
e 1 24
e 1 27
e 1 41
e 1 42
e 1 56
e 1 59
e 1 61
e 1 67
e 1 71
e 1 75
e 1 81
e 1 82
e 1 88
e 1 98
e 1 103
e 1 108
e 1 112
e 1 113
e 2 3
e 2 4
e 2 5
e 2 6
e 2 7
e 2 8
e 2 9
e 2 10
e 2 11
e 2 13
e 2 14
e 2 15
e 2 25
e 2 28
e 2 40
e 2 48
e 2 55
e 2 58
e 2 62
e 2 68
e 2 72
e 2 76
e 2 77
e 2 83
e 2 97
e 2 104
e 2 109
e 2 114
e 2 119
e 3 4
e 3 5
e 3 6
e 3 7
e 3 8
e 3 9
e 3 10
e 3 11
e 3 14
e 3 15
e 3 16
e 3 24
e 3 27
e 3 29
e 3 39
e 3 47
e 3 54
e 3 60
e 3 63
e 3 69
e 3 73
e 3 74
e 3 78
e 3 99
e 3 105
e 3 111
e 3 116
e 3 118
e 4 5
e 4 6
e 4 7
e 4 8
e 4 9
e 4 10
e 4 11
e 4 15
e 4 16
e 4 17
e 4 25
e 4 28
e 4 30
e 4 38
e 4 46
e 4 53
e 4 59
e 4 61
e 4 64
e 4 66
e 4 70
e 4 79
e 4 100
e 4 106
e 4 110
e 4 117
e 4 120
e 5 6
e 5 7
e 5 8
e 5 9
e 5 10
e 5 11
e 5 16
e 5 17
e 5 18
e 5 27
e 5 29
e 5 31
e 5 37
e 5 45
e 5 52
e 5 58
e 5 62
e 5 65
e 5 67
e 5 71
e 5 80
e 5 101
e 5 102
e 5 107
e 5 115
e 5 121
e 6 7
e 6 8
e 6 9
e 6 10
e 6 11
e 6 17
e 6 18
e 6 19
e 6 28
e 6 30
e 6 32
e 6 36
e 6 44
e 6 51
e 6 60
e 6 63
e 6 68
e 6 72
e 6 75
e 6 81
e 6 92
e 6 93
e 6 94
e 6 95
e 6 96
e 7 8
e 7 9
e 7 10
e 7 11
e 7 18
e 7 19
e 7 20
e 7 29
e 7 31
e 7 33
e 7 34
e 7 43
e 7 61
e 7 64
e 7 69
e 7 73
e 7 76
e 7 77
e 7 87
e 7 88
e 7 89
e 7 90
e 7 91
e 7 98
e 8 9
e 8 10
e 8 11
e 8 19
e 8 20
e 8 21
e 8 26
e 8 30
e 8 32
e 8 35
e 8 62
e 8 65
e 8 66
e 8 70
e 8 74
e 8 78
e 8 82
e 8 83
e 8 84
e 8 85
e 8 86
e 8 97
e 8 103
e 9 10
e 9 11
e 9 20
e 9 21
e 9 22
e 9 23
e 9 31
e 9 33
e 9 50
e 9 51
e 9 52
e 9 53
e 9 54
e 9 55
e 9 56
e 9 57
e 9 63
e 9 71
e 9 79
e 9 99
e 9 104
e 9 108
e 10 11
e 10 12
e 10 21
e 10 22
e 10 26
e 10 32
e 10 42
e 10 43
e 10 44
e 10 45
e 10 46
e 10 47
e 10 48
e 10 49
e 10 64
e 10 72
e 10 80
e 10 100
e 10 105
e 10 109
e 10 113
e 11 12
e 11 22
e 11 23
e 11 33
e 11 34
e 11 35
e 11 36
e 11 37
e 11 38
e 11 39
e 11 40
e 11 41
e 11 65
e 11 73
e 11 81
e 11 101
e 11 106
e 11 111
e 11 112
e 11 114
e 12 13
e 12 14
e 12 15
e 12 16
e 12 17
e 12 18
e 12 19
e 12 20
e 12 21
e 12 22
e 12 23
e 12 26
e 12 34
e 12 35
e 12 36
e 12 37
e 12 38
e 12 39
e 12 40
e 12 41
e 12 51
e 12 66
e 12 77
e 12 93
e 12 102
e 12 110
e 12 116
e 12 119
e 13 14
e 13 15
e 13 16
e 13 17
e 13 18
e 13 19
e 13 20
e 13 21
e 13 22
e 13 24
e 13 25
e 13 49
e 13 50
e 13 59
e 13 60
e 13 67
e 13 70
e 13 75
e 13 80
e 13 84
e 13 89
e 13 93
e 13 98
e 13 103
e 13 108
e 13 112
e 13 113
e 14 15
e 14 16
e 14 17
e 14 18
e 14 19
e 14 20
e 14 21
e 14 22
e 14 24
e 14 25
e 14 27
e 14 41
e 14 42
e 14 56
e 14 58
e 14 61
e 14 68
e 14 71
e 14 76
e 14 81
e 14 82
e 14 88
e 14 97
e 14 104
e 14 109
e 14 114
e 14 119
e 15 16
e 15 17
e 15 18
e 15 19
e 15 20
e 15 21
e 15 22
e 15 25
e 15 27
e 15 28
e 15 40
e 15 48
e 15 55
e 15 59
e 15 60
e 15 62
e 15 69
e 15 72
e 15 77
e 15 78
e 15 83
e 15 99
e 15 105
e 15 111
e 15 116
e 15 118
e 16 17
e 16 18
e 16 19
e 16 20
e 16 21
e 16 22
e 16 27
e 16 28
e 16 29
e 16 39
e 16 47
e 16 54
e 16 58
e 16 61
e 16 63
e 16 67
e 16 70
e 16 73
e 16 74
e 16 79
e 16 100
e 16 106
e 16 110
e 16 117
e 16 120
e 17 18
e 17 19
e 17 20
e 17 21
e 17 22
e 17 28
e 17 29
e 17 30
e 17 38
e 17 46
e 17 53
e 17 60
e 17 62
e 17 64
e 17 66
e 17 68
e 17 71
e 17 75
e 17 80
e 17 101
e 17 102
e 17 107
e 17 115
e 17 121
e 18 19
e 18 20
e 18 21
e 18 22
e 18 29
e 18 30
e 18 31
e 18 37
e 18 45
e 18 52
e 18 61
e 18 63
e 18 65
e 18 69
e 18 72
e 18 76
e 18 81
e 18 92
e 18 93
e 18 94
e 18 95
e 18 96
e 18 98
e 19 20
e 19 21
e 19 22
e 19 30
e 19 31
e 19 32
e 19 36
e 19 44
e 19 51
e 19 62
e 19 64
e 19 70
e 19 73
e 19 77
e 19 78
e 19 87
e 19 88
e 19 89
e 19 90
e 19 91
e 19 97
e 19 103
e 20 21
e 20 22
e 20 31
e 20 32
e 20 33
e 20 34
e 20 43
e 20 63
e 20 65
e 20 66
e 20 71
e 20 74
e 20 79
e 20 82
e 20 83
e 20 84
e 20 85
e 20 86
e 20 99
e 20 104
e 20 108
e 21 22
e 21 26
e 21 32
e 21 33
e 21 35
e 21 50
e 21 51
e 21 52
e 21 53
e 21 54
e 21 55
e 21 56
e 21 57
e 21 64
e 21 72
e 21 80
e 21 100
e 21 105
e 21 109
e 21 113
e 22 23
e 22 26
e 22 33
e 22 42
e 22 43
e 22 44
e 22 45
e 22 46
e 22 47
e 22 48
e 22 49
e 22 65
e 22 73
e 22 81
e 22 101
e 22 106
e 22 111
e 22 112
e 22 114
e 23 24
e 23 25
e 23 26
e 23 27
e 23 28
e 23 29
e 23 30
e 23 31
e 23 32
e 23 33
e 23 34
e 23 35
e 23 36
e 23 37
e 23 38
e 23 39
e 23 40
e 23 41
e 23 43
e 23 52
e 23 74
e 23 88
e 23 94
e 23 107
e 23 117
e 23 118
e 24 25
e 24 26
e 24 27
e 24 28
e 24 29
e 24 30
e 24 31
e 24 32
e 24 33
e 24 57
e 24 58
e 24 59
e 24 67
e 24 69
e 24 75
e 24 79
e 24 85
e 24 90
e 24 94
e 24 98
e 24 101
e 24 103
e 24 108
e 24 112
e 24 113
e 25 26
e 25 27
e 25 28
e 25 29
e 25 30
e 25 31
e 25 32
e 25 33
e 25 49
e 25 50
e 25 58
e 25 59
e 25 60
e 25 68
e 25 70
e 25 76
e 25 80
e 25 84
e 25 89
e 25 93
e 25 97
e 25 104
e 25 109
e 25 114
e 25 119
e 26 27
e 26 28
e 26 29
e 26 30
e 26 31
e 26 32
e 26 33
e 26 35
e 26 42
e 26 43
e 26 44
e 26 45
e 26 46
e 26 47
e 26 48
e 26 49
e 26 51
e 26 66
e 26 77
e 26 93
e 26 102
e 26 110
e 26 116
e 26 119
e 27 28
e 27 29
e 27 30
e 27 31
e 27 32
e 27 33
e 27 41
e 27 42
e 27 56
e 27 58
e 27 60
e 27 61
e 27 67
e 27 69
e 27 71
e 27 78
e 27 81
e 27 82
e 27 88
e 27 99
e 27 105
e 27 111
e 27 116
e 27 118
e 28 29
e 28 30
e 28 31
e 28 32
e 28 33
e 28 40
e 28 48
e 28 55
e 28 60
e 28 61
e 28 62
e 28 68
e 28 70
e 28 72
e 28 75
e 28 77
e 28 79
e 28 83
e 28 100
e 28 106
e 28 110
e 28 117
e 28 120
e 29 30
e 29 31
e 29 32
e 29 33
e 29 39
e 29 47
e 29 54
e 29 61
e 29 62
e 29 63
e 29 69
e 29 71
e 29 73
e 29 74
e 29 76
e 29 80
e 29 98
e 29 101
e 29 102
e 29 107
e 29 115
e 29 121
e 30 31
e 30 32
e 30 33
e 30 38
e 30 46
e 30 53
e 30 62
e 30 63
e 30 64
e 30 66
e 30 70
e 30 72
e 30 78
e 30 81
e 30 92
e 30 93
e 30 94
e 30 95
e 30 96
e 30 97
e 30 103
e 31 32
e 31 33
e 31 37
e 31 45
e 31 52
e 31 63
e 31 64
e 31 65
e 31 71
e 31 73
e 31 77
e 31 79
e 31 87
e 31 88
e 31 89
e 31 90
e 31 91
e 31 99
e 31 104
e 31 108
e 32 33
e 32 36
e 32 44
e 32 51
e 32 64
e 32 65
e 32 66
e 32 72
e 32 74
e 32 80
e 32 82
e 32 83
e 32 84
e 32 85
e 32 86
e 32 100
e 32 105
e 32 109
e 32 113
e 33 34
e 33 43
e 33 50
e 33 51
e 33 52
e 33 53
e 33 54
e 33 55
e 33 56
e 33 57
e 33 65
e 33 73
e 33 81
e 33 101
e 33 106
e 33 111
e 33 112
e 33 114
e 34 35
e 34 36
e 34 37
e 34 38
e 34 39
e 34 40
e 34 41
e 34 43
e 34 44
e 34 45
e 34 52
e 34 54
e 34 66
e 34 67
e 34 68
e 34 69
e 34 70
e 34 71
e 34 72
e 34 73
e 34 82
e 34 90
e 34 92
e 34 121
e 35 36
e 35 37
e 35 38
e 35 39
e 35 40
e 35 41
e 35 43
e 35 44
e 35 51
e 35 53
e 35 58
e 35 59
e 35 60
e 35 61
e 35 62
e 35 63
e 35 64
e 35 65
e 35 83
e 35 89
e 35 95
e 35 115
e 35 120
e 36 37
e 36 38
e 36 39
e 36 40
e 36 41
e 36 44
e 36 45
e 36 46
e 36 51
e 36 53
e 36 55
e 36 74
e 36 75
e 36 76
e 36 77
e 36 78
e 36 79
e 36 80
e 36 81
e 36 84
e 36 87
e 36 96
e 37 38
e 37 39
e 37 40
e 37 41
e 37 45
e 37 46
e 37 47
e 37 52
e 37 54
e 37 56
e 37 65
e 37 83
e 37 85
e 37 88
e 37 91
e 37 93
e 37 97
e 37 98
e 37 99
e 37 100
e 37 101
e 38 39
e 38 40
e 38 41
e 38 46
e 38 47
e 38 48
e 38 50
e 38 53
e 38 55
e 38 64
e 38 66
e 38 82
e 38 86
e 38 89
e 38 94
e 38 102
e 38 103
e 38 104
e 38 105
e 38 106
e 39 40
e 39 41
e 39 42
e 39 47
e 39 48
e 39 54
e 39 56
e 39 57
e 39 63
e 39 73
e 39 74
e 39 84
e 39 90
e 39 95
e 39 107
e 39 108
e 39 109
e 39 110
e 39 111
e 40 41
e 40 42
e 40 48
e 40 49
e 40 50
e 40 55
e 40 62
e 40 72
e 40 77
e 40 83
e 40 85
e 40 87
e 40 92
e 40 113
e 40 114
e 40 115
e 40 116
e 40 117
e 41 42
e 41 49
e 41 56
e 41 57
e 41 61
e 41 71
e 41 81
e 41 82
e 41 86
e 41 88
e 41 91
e 41 96
e 41 112
e 41 118
e 41 119
e 41 120
e 41 121
e 42 43
e 42 44
e 42 45
e 42 46
e 42 47
e 42 48
e 42 49
e 42 50
e 42 56
e 42 57
e 42 61
e 42 71
e 42 81
e 42 82
e 42 85
e 42 87
e 42 88
e 42 92
e 42 113
e 42 114
e 42 115
e 42 116
e 42 117
e 43 44
e 43 45
e 43 46
e 43 47
e 43 48
e 43 49
e 43 51
e 43 52
e 43 58
e 43 59
e 43 60
e 43 61
e 43 62
e 43 63
e 43 64
e 43 65
e 43 74
e 43 88
e 43 94
e 43 107
e 43 117
e 43 118
e 44 45
e 44 46
e 44 47
e 44 48
e 44 49
e 44 51
e 44 52
e 44 53
e 44 66
e 44 67
e 44 68
e 44 69
e 44 70
e 44 71
e 44 72
e 44 73
e 44 83
e 44 89
e 44 95
e 44 115
e 44 120
e 45 46
e 45 47
e 45 48
e 45 49
e 45 52
e 45 53
e 45 54
e 45 65
e 45 74
e 45 75
e 45 76
e 45 77
e 45 78
e 45 79
e 45 80
e 45 81
e 45 82
e 45 90
e 45 92
e 45 121
e 46 47
e 46 48
e 46 49
e 46 53
e 46 54
e 46 55
e 46 64
e 46 66
e 46 83
e 46 84
e 46 87
e 46 88
e 46 93
e 46 96
e 46 97
e 46 98
e 46 99
e 46 100
e 46 101
e 47 48
e 47 49
e 47 54
e 47 55
e 47 56
e 47 63
e 47 73
e 47 74
e 47 82
e 47 85
e 47 89
e 47 91
e 47 94
e 47 102
e 47 103
e 47 104
e 47 105
e 47 106
e 48 49
e 48 50
e 48 55
e 48 56
e 48 62
e 48 72
e 48 77
e 48 83
e 48 84
e 48 86
e 48 90
e 48 95
e 48 107
e 48 108
e 48 109
e 48 110
e 48 111
e 49 50
e 49 57
e 49 60
e 49 70
e 49 80
e 49 84
e 49 86
e 49 89
e 49 91
e 49 93
e 49 96
e 49 112
e 49 118
e 49 119
e 49 120
e 49 121
e 50 51
e 50 52
e 50 53
e 50 54
e 50 55
e 50 56
e 50 57
e 50 60
e 50 70
e 50 80
e 50 84
e 50 85
e 50 86
e 50 87
e 50 89
e 50 92
e 50 93
e 50 113
e 50 114
e 50 115
e 50 116
e 50 117
e 51 52
e 51 53
e 51 54
e 51 55
e 51 56
e 51 57
e 51 58
e 51 59
e 51 60
e 51 61
e 51 62
e 51 63
e 51 64
e 51 65
e 51 66
e 51 77
e 51 93
e 51 102
e 51 110
e 51 116
e 51 119
e 52 53
e 52 54
e 52 55
e 52 56
e 52 57
e 52 65
e 52 66
e 52 67
e 52 68
e 52 69
e 52 70
e 52 71
e 52 72
e 52 73
e 52 74
e 52 88
e 52 94
e 52 107
e 52 117
e 52 118
e 53 54
e 53 55
e 53 56
e 53 57
e 53 64
e 53 66
e 53 74
e 53 75
e 53 76
e 53 77
e 53 78
e 53 79
e 53 80
e 53 81
e 53 83
e 53 89
e 53 95
e 53 115
e 53 120
e 54 55
e 54 56
e 54 57
e 54 63
e 54 73
e 54 74
e 54 82
e 54 83
e 54 88
e 54 90
e 54 92
e 54 93
e 54 97
e 54 98
e 54 99
e 54 100
e 54 101
e 54 121
e 55 56
e 55 57
e 55 62
e 55 72
e 55 77
e 55 82
e 55 83
e 55 84
e 55 87
e 55 89
e 55 94
e 55 96
e 55 102
e 55 103
e 55 104
e 55 105
e 55 106
e 56 57
e 56 61
e 56 71
e 56 81
e 56 82
e 56 84
e 56 85
e 56 88
e 56 90
e 56 91
e 56 95
e 56 107
e 56 108
e 56 109
e 56 110
e 56 111
e 57 58
e 57 69
e 57 79
e 57 85
e 57 86
e 57 90
e 57 91
e 57 94
e 57 96
e 57 101
e 57 112
e 57 118
e 57 119
e 57 120
e 57 121
e 58 59
e 58 60
e 58 61
e 58 62
e 58 63
e 58 64
e 58 65
e 58 67
e 58 68
e 58 69
e 58 76
e 58 79
e 58 85
e 58 90
e 58 94
e 58 97
e 58 101
e 58 104
e 58 109
e 58 114
e 58 119
e 59 60
e 59 61
e 59 62
e 59 63
e 59 64
e 59 65
e 59 67
e 59 68
e 59 75
e 59 78
e 59 86
e 59 87
e 59 95
e 59 98
e 59 100
e 59 102
e 59 103
e 59 108
e 59 112
e 59 113
e 60 61
e 60 62
e 60 63
e 60 64
e 60 65
e 60 68
e 60 69
e 60 70
e 60 75
e 60 78
e 60 80
e 60 84
e 60 89
e 60 93
e 60 99
e 60 105
e 60 111
e 60 116
e 60 118
e 61 62
e 61 63
e 61 64
e 61 65
e 61 69
e 61 70
e 61 71
e 61 76
e 61 79
e 61 81
e 61 82
e 61 88
e 61 98
e 61 100
e 61 106
e 61 110
e 61 117
e 61 120
e 62 63
e 62 64
e 62 65
e 62 70
e 62 71
e 62 72
e 62 77
e 62 78
e 62 80
e 62 83
e 62 97
e 62 101
e 62 102
e 62 103
e 62 107
e 62 115
e 62 121
e 63 64
e 63 65
e 63 71
e 63 72
e 63 73
e 63 74
e 63 79
e 63 81
e 63 92
e 63 93
e 63 94
e 63 95
e 63 96
e 63 99
e 63 104
e 63 108
e 64 65
e 64 66
e 64 72
e 64 73
e 64 77
e 64 80
e 64 87
e 64 88
e 64 89
e 64 90
e 64 91
e 64 100
e 64 105
e 64 109
e 64 113
e 65 66
e 65 73
e 65 74
e 65 81
e 65 82
e 65 83
e 65 84
e 65 85
e 65 86
e 65 101
e 65 106
e 65 111
e 65 112
e 65 114
e 66 67
e 66 68
e 66 69
e 66 70
e 66 71
e 66 72
e 66 73
e 66 74
e 66 77
e 66 82
e 66 83
e 66 84
e 66 85
e 66 86
e 66 93
e 66 102
e 66 110
e 66 116
e 66 119
e 67 68
e 67 69
e 67 70
e 67 71
e 67 72
e 67 73
e 67 75
e 67 76
e 67 91
e 67 92
e 67 98
e 67 99
e 67 103
e 67 106
e 67 107
e 67 108
e 67 112
e 67 113
e 68 69
e 68 70
e 68 71
e 68 72
e 68 73
e 68 75
e 68 76
e 68 78
e 68 86
e 68 87
e 68 95
e 68 97
e 68 100
e 68 102
e 68 104
e 68 109
e 68 114
e 68 119
e 69 70
e 69 71
e 69 72
e 69 73
e 69 76
e 69 78
e 69 79
e 69 85
e 69 90
e 69 94
e 69 98
e 69 99
e 69 101
e 69 105
e 69 111
e 69 116
e 69 118
e 70 71
e 70 72
e 70 73
e 70 78
e 70 79
e 70 80
e 70 84
e 70 89
e 70 93
e 70 97
e 70 100
e 70 103
e 70 106
e 70 110
e 70 117
e 70 120
e 71 72
e 71 73
e 71 79
e 71 80
e 71 81
e 71 82
e 71 88
e 71 99
e 71 101
e 71 102
e 71 104
e 71 107
e 71 108
e 71 115
e 71 121
e 72 73
e 72 77
e 72 80
e 72 81
e 72 83
e 72 92
e 72 93
e 72 94
e 72 95
e 72 96
e 72 100
e 72 105
e 72 109
e 72 113
e 73 74
e 73 77
e 73 81
e 73 87
e 73 88
e 73 89
e 73 90
e 73 91
e 73 101
e 73 106
e 73 111
e 73 112
e 73 114
e 74 75
e 74 76
e 74 77
e 74 78
e 74 79
e 74 80
e 74 81
e 74 82
e 74 83
e 74 84
e 74 85
e 74 86
e 74 88
e 74 94
e 74 107
e 74 117
e 74 118
e 75 76
e 75 77
e 75 78
e 75 79
e 75 80
e 75 81
e 75 96
e 75 97
e 75 98
e 75 103
e 75 105
e 75 108
e 75 110
e 75 112
e 75 113
e 75 115
e 76 77
e 76 78
e 76 79
e 76 80
e 76 81
e 76 91
e 76 92
e 76 97
e 76 98
e 76 99
e 76 104
e 76 106
e 76 107
e 76 109
e 76 114
e 76 119
e 77 78
e 77 79
e 77 80
e 77 81
e 77 83
e 77 87
e 77 88
e 77 89
e 77 90
e 77 91
e 77 93
e 77 102
e 77 110
e 77 116
e 77 119
e 78 79
e 78 80
e 78 81
e 78 86
e 78 87
e 78 95
e 78 97
e 78 99
e 78 100
e 78 102
e 78 103
e 78 105
e 78 111
e 78 116
e 78 118
e 79 80
e 79 81
e 79 85
e 79 90
e 79 94
e 79 99
e 79 100
e 79 101
e 79 104
e 79 106
e 79 108
e 79 110
e 79 117
e 79 120
e 80 81
e 80 84
e 80 89
e 80 93
e 80 100
e 80 101
e 80 102
e 80 105
e 80 107
e 80 109
e 80 113
e 80 115
e 80 121
e 81 82
e 81 88
e 81 92
e 81 93
e 81 94
e 81 95
e 81 96
e 81 101
e 81 106
e 81 111
e 81 112
e 81 114
e 82 83
e 82 84
e 82 85
e 82 86
e 82 88
e 82 89
e 82 90
e 82 92
e 82 94
e 82 102
e 82 103
e 82 104
e 82 105
e 82 106
e 82 121
e 83 84
e 83 85
e 83 86
e 83 88
e 83 89
e 83 93
e 83 95
e 83 97
e 83 98
e 83 99
e 83 100
e 83 101
e 83 115
e 83 120
e 84 85
e 84 86
e 84 87
e 84 89
e 84 90
e 84 93
e 84 95
e 84 96
e 84 107
e 84 108
e 84 109
e 84 110
e 84 111
e 85 86
e 85 87
e 85 90
e 85 91
e 85 92
e 85 94
e 85 101
e 85 113
e 85 114
e 85 115
e 85 116
e 85 117
e 86 87
e 86 91
e 86 95
e 86 96
e 86 100
e 86 102
e 86 112
e 86 118
e 86 119
e 86 120
e 86 121
e 87 88
e 87 89
e 87 90
e 87 91
e 87 92
e 87 95
e 87 96
e 87 100
e 87 102
e 87 113
e 87 114
e 87 115
e 87 116
e 87 117
e 88 89
e 88 90
e 88 91
e 88 93
e 88 94
e 88 97
e 88 98
e 88 99
e 88 100
e 88 101
e 88 107
e 88 117
e 88 118
e 89 90
e 89 91
e 89 93
e 89 94
e 89 95
e 89 102
e 89 103
e 89 104
e 89 105
e 89 106
e 89 115
e 89 120
e 90 91
e 90 92
e 90 94
e 90 95
e 90 101
e 90 107
e 90 108
e 90 109
e 90 110
e 90 111
e 90 121
e 91 92
e 91 96
e 91 99
e 91 106
e 91 107
e 91 112
e 91 118
e 91 119
e 91 120
e 91 121
e 92 93
e 92 94
e 92 95
e 92 96
e 92 99
e 92 106
e 92 107
e 92 113
e 92 114
e 92 115
e 92 116
e 92 117
e 92 121
e 93 94
e 93 95
e 93 96
e 93 97
e 93 98
e 93 99
e 93 100
e 93 101
e 93 102
e 93 110
e 93 116
e 93 119
e 94 95
e 94 96
e 94 101
e 94 102
e 94 103
e 94 104
e 94 105
e 94 106
e 94 107
e 94 117
e 94 118
e 95 96
e 95 100
e 95 102
e 95 107
e 95 108
e 95 109
e 95 110
e 95 111
e 95 115
e 95 120
e 96 97
e 96 105
e 96 110
e 96 112
e 96 115
e 96 118
e 96 119
e 96 120
e 96 121
e 97 98
e 97 99
e 97 100
e 97 101
e 97 103
e 97 104
e 97 105
e 97 109
e 97 110
e 97 114
e 97 115
e 97 119
e 98 99
e 98 100
e 98 101
e 98 103
e 98 104
e 98 108
e 98 111
e 98 112
e 98 113
e 98 117
e 98 121
e 99 100
e 99 101
e 99 104
e 99 105
e 99 106
e 99 107
e 99 108
e 99 111
e 99 116
e 99 118
e 100 101
e 100 102
e 100 105
e 100 106
e 100 109
e 100 110
e 100 113
e 100 117
e 100 120
e 101 102
e 101 106
e 101 107
e 101 111
e 101 112
e 101 114
e 101 115
e 101 121
e 102 103
e 102 104
e 102 105
e 102 106
e 102 107
e 102 110
e 102 115
e 102 116
e 102 119
e 102 121
e 103 104
e 103 105
e 103 106
e 103 108
e 103 109
e 103 112
e 103 113
e 103 116
e 103 120
e 104 105
e 104 106
e 104 108
e 104 109
e 104 111
e 104 114
e 104 117
e 104 119
e 104 121
e 105 106
e 105 109
e 105 110
e 105 111
e 105 113
e 105 115
e 105 116
e 105 118
e 106 107
e 106 110
e 106 111
e 106 112
e 106 114
e 106 117
e 106 120
e 107 108
e 107 109
e 107 110
e 107 111
e 107 115
e 107 117
e 107 118
e 107 121
e 108 109
e 108 110
e 108 111
e 108 112
e 108 113
e 108 114
e 108 118
e 109 110
e 109 111
e 109 113
e 109 114
e 109 116
e 109 119
e 109 120
e 110 111
e 110 115
e 110 116
e 110 117
e 110 119
e 110 120
e 111 112
e 111 114
e 111 116
e 111 117
e 111 118
e 111 121
e 112 113
e 112 114
e 112 118
e 112 119
e 112 120
e 112 121
e 113 114
e 113 115
e 113 116
e 113 117
e 113 119
e 114 115
e 114 116
e 114 117
e 114 118
e 114 119
e 115 116
e 115 117
e 115 120
e 115 121
e 116 117
e 116 118
e 116 119
e 116 120
e 117 118
e 117 120
e 117 121
e 118 119
e 118 120
e 118 121
e 119 120
e 119 121
e 120 121
